results/x-long/X-n134-k13.vrp_seed-31.out
10933	1046
