results/x-long/X-n134-k13.vrp_seed-31.vrp.sol
Route #1: 72 103 10 88 37 24 62 32
Route #2: 95 60 58 34 41 105 116 129
Route #3: 79 120 43 36 111 104 99 46 106
Route #4: 69 1 61 71 49 117 64 48 112
Route #5: 118 51 16 47 9 2 14 91
Route #6: 66 53 23 98 44 70 4 27 22 55 126 67 20 75 28 65 42 93 94 102 45 21
Route #7: 109 87 26 35 54 110 123 56 132
Route #8: 39 73 18 59 25 113 89 101 11
Route #9: 83 78 74 50 38 19 17 76
Route #10: 100 122 125 127 114 131 52 40
Route #11: 31 92 29 119 57 85 12 80
Route #12: 130 3 86 33 124 133 82 115 128
Route #13: 90 108 6 97 5 77 121 7 68 30 8 107 84 81 15 63 13 96
Cost 10933.000000